(declare-fun b911 () (_ FloatingPoint 8 24))
(declare-fun b772 () (_ FloatingPoint 8 24))
(declare-fun b856 () (_ FloatingPoint 8 24))
(declare-fun b832 () (_ FloatingPoint 8 24))
(declare-fun b155 () (_ FloatingPoint 8 24))
(declare-fun b896 () (_ FloatingPoint 8 24))
(declare-fun b531 () (_ FloatingPoint 8 24))
(declare-fun b244 () (_ FloatingPoint 11 53))
(declare-fun b777 () (_ FloatingPoint 8 24))
(declare-fun b906 () (_ FloatingPoint 8 24))
(declare-fun b770 () (_ FloatingPoint 8 24))
(declare-fun b866 () (_ FloatingPoint 8 24))
(declare-fun b162 () (_ FloatingPoint 8 24))
(declare-fun b891 () (_ FloatingPoint 8 24))
(declare-fun b227 () (_ FloatingPoint 11 53))
(declare-fun b210 () (_ FloatingPoint 11 53))
(declare-fun b379 () (_ FloatingPoint 11 53))
(declare-fun b328 () (_ FloatingPoint 11 53))
(declare-fun b807 () (_ FloatingPoint 8 24))
(declare-fun b827 () (_ FloatingPoint 8 24))
(declare-fun b787 () (_ FloatingPoint 8 24))
(declare-fun b362 () (_ FloatingPoint 11 53))
(declare-fun b881 () (_ FloatingPoint 8 24))
(declare-fun b851 () (_ FloatingPoint 8 24))
(declare-fun b817 () (_ FloatingPoint 8 24))
(declare-fun b261 () (_ FloatingPoint 11 53))
(declare-fun b528 () (_ FloatingPoint 8 24))
(declare-fun b871 () (_ FloatingPoint 8 24))
(declare-fun b846 () (_ FloatingPoint 8 24))
(declare-fun b312 () (_ FloatingPoint 11 53))
(declare-fun b194 () (_ FloatingPoint 11 53))
(declare-fun b345 () (_ FloatingPoint 11 53))
(declare-fun b782 () (_ FloatingPoint 8 24))
(declare-fun b916 () (_ FloatingPoint 8 24))
(declare-fun b886 () (_ FloatingPoint 8 24))
(declare-fun b295 () (_ FloatingPoint 11 53))
(declare-fun b413 () (_ FloatingPoint 11 53))
(declare-fun b185 () (_ FloatingPoint 11 53))
(declare-fun b792 () (_ FloatingPoint 8 24))
(declare-fun b861 () (_ FloatingPoint 8 24))
(declare-fun b837 () (_ FloatingPoint 8 24))
(declare-fun b812 () (_ FloatingPoint 8 24))
(declare-fun b901 () (_ FloatingPoint 8 24))
(declare-fun b797 () (_ FloatingPoint 8 24))
(declare-fun b822 () (_ FloatingPoint 8 24))
(declare-fun b765 () (_ FloatingPoint 8 24))
(declare-fun b278 () (_ FloatingPoint 11 53))
(declare-fun b172 () (_ FloatingPoint 11 53))
(declare-fun b876 () (_ FloatingPoint 8 24))
(declare-fun b153 () (_ FloatingPoint 8 24))
(declare-fun b802 () (_ FloatingPoint 8 24))
(declare-fun b396 () (_ FloatingPoint 11 53))
(assert (let ((.def_424 ((_ to_fp 11 53) RNE b846)))
(let ((.def_425 (fp.leq b185 .def_424)))
(let ((.def_426 (not .def_425)))
(let ((.def_10 (fp.mul RNE b153 b153)))
(let ((.def_11 (fp.neg .def_10)))
(let ((.def_12 (fp.mul RNE b153 .def_11)))
(let ((.def_13 ((_ to_fp 11 53) RNE .def_12)))
(let ((.def_15 (fp.div RNE .def_13 b172)))
(let ((.def_16 ((_ to_fp 8 24) RNE .def_15)))
(let ((.def_421 (fp.neg .def_16)))
(let ((.def_422 (= b916 .def_421)))
(let ((.def_418 (fp.leq b155 .def_16)))
(let ((.def_419 (not .def_418)))
(let ((.def_20 (fp.mul RNE .def_11 .def_16)))
(let ((.def_21 ((_ to_fp 11 53) RNE .def_20)))
(let ((.def_23 (fp.div RNE .def_21 b194)))
(let ((.def_24 ((_ to_fp 8 24) RNE .def_23)))
(let ((.def_414 (fp.neg .def_24)))
(let ((.def_415 (= b911 .def_414)))
(let ((.def_411 (fp.leq b155 .def_24)))
(let ((.def_412 (not .def_411)))
(let ((.def_28 (fp.mul RNE .def_11 .def_24)))
(let ((.def_29 ((_ to_fp 11 53) RNE .def_28)))
(let ((.def_31 (fp.div RNE .def_29 b210)))
(let ((.def_32 ((_ to_fp 8 24) RNE .def_31)))
(let ((.def_407 (fp.neg .def_32)))
(let ((.def_408 (= b906 .def_407)))
(let ((.def_404 (fp.leq b155 .def_32)))
(let ((.def_405 (not .def_404)))
(let ((.def_36 (fp.mul RNE .def_11 .def_32)))
(let ((.def_37 ((_ to_fp 11 53) RNE .def_36)))
(let ((.def_39 (fp.div RNE .def_37 b227)))
(let ((.def_40 ((_ to_fp 8 24) RNE .def_39)))
(let ((.def_400 (fp.neg .def_40)))
(let ((.def_401 (= b901 .def_400)))
(let ((.def_397 (fp.leq b155 .def_40)))
(let ((.def_398 (not .def_397)))
(let ((.def_44 (fp.mul RNE .def_11 .def_40)))
(let ((.def_45 ((_ to_fp 11 53) RNE .def_44)))
(let ((.def_47 (fp.div RNE .def_45 b244)))
(let ((.def_48 ((_ to_fp 8 24) RNE .def_47)))
(let ((.def_393 (fp.neg .def_48)))
(let ((.def_394 (= b896 .def_393)))
(let ((.def_390 (fp.leq b155 .def_48)))
(let ((.def_391 (not .def_390)))
(let ((.def_52 (fp.mul RNE .def_11 .def_48)))
(let ((.def_53 ((_ to_fp 11 53) RNE .def_52)))
(let ((.def_55 (fp.div RNE .def_53 b261)))
(let ((.def_56 ((_ to_fp 8 24) RNE .def_55)))
(let ((.def_386 (fp.neg .def_56)))
(let ((.def_387 (= b891 .def_386)))
(let ((.def_383 (fp.leq b155 .def_56)))
(let ((.def_384 (not .def_383)))
(let ((.def_60 (fp.mul RNE .def_11 .def_56)))
(let ((.def_61 ((_ to_fp 11 53) RNE .def_60)))
(let ((.def_63 (fp.div RNE .def_61 b278)))
(let ((.def_64 ((_ to_fp 8 24) RNE .def_63)))
(let ((.def_379 (fp.neg .def_64)))
(let ((.def_380 (= b886 .def_379)))
(let ((.def_376 (fp.leq b155 .def_64)))
(let ((.def_377 (not .def_376)))
(let ((.def_68 (fp.mul RNE .def_11 .def_64)))
(let ((.def_69 ((_ to_fp 11 53) RNE .def_68)))
(let ((.def_71 (fp.div RNE .def_69 b295)))
(let ((.def_72 ((_ to_fp 8 24) RNE .def_71)))
(let ((.def_372 (fp.neg .def_72)))
(let ((.def_373 (= b881 .def_372)))
(let ((.def_369 (fp.leq b155 .def_72)))
(let ((.def_370 (not .def_369)))
(let ((.def_76 (fp.mul RNE .def_11 .def_72)))
(let ((.def_77 ((_ to_fp 11 53) RNE .def_76)))
(let ((.def_79 (fp.div RNE .def_77 b312)))
(let ((.def_80 ((_ to_fp 8 24) RNE .def_79)))
(let ((.def_365 (fp.neg .def_80)))
(let ((.def_366 (= b876 .def_365)))
(let ((.def_362 (fp.leq b155 .def_80)))
(let ((.def_363 (not .def_362)))
(let ((.def_84 (fp.mul RNE .def_11 .def_80)))
(let ((.def_85 ((_ to_fp 11 53) RNE .def_84)))
(let ((.def_87 (fp.div RNE .def_85 b328)))
(let ((.def_88 ((_ to_fp 8 24) RNE .def_87)))
(let ((.def_358 (fp.neg .def_88)))
(let ((.def_359 (= b871 .def_358)))
(let ((.def_355 (fp.leq b155 .def_88)))
(let ((.def_356 (not .def_355)))
(let ((.def_92 (fp.mul RNE .def_11 .def_88)))
(let ((.def_93 ((_ to_fp 11 53) RNE .def_92)))
(let ((.def_95 (fp.div RNE .def_93 b345)))
(let ((.def_96 ((_ to_fp 8 24) RNE .def_95)))
(let ((.def_351 (fp.neg .def_96)))
(let ((.def_352 (= b866 .def_351)))
(let ((.def_348 (fp.leq b155 .def_96)))
(let ((.def_349 (not .def_348)))
(let ((.def_100 (fp.mul RNE .def_11 .def_96)))
(let ((.def_101 ((_ to_fp 11 53) RNE .def_100)))
(let ((.def_103 (fp.div RNE .def_101 b362)))
(let ((.def_104 ((_ to_fp 8 24) RNE .def_103)))
(let ((.def_344 (fp.neg .def_104)))
(let ((.def_345 (= b861 .def_344)))
(let ((.def_341 (fp.leq b155 .def_104)))
(let ((.def_342 (not .def_341)))
(let ((.def_108 (fp.mul RNE .def_11 .def_104)))
(let ((.def_109 ((_ to_fp 11 53) RNE .def_108)))
(let ((.def_111 (fp.div RNE .def_109 b379)))
(let ((.def_112 ((_ to_fp 8 24) RNE .def_111)))
(let ((.def_337 (fp.neg .def_112)))
(let ((.def_338 (= b856 .def_337)))
(let ((.def_334 (fp.leq b155 .def_112)))
(let ((.def_335 (not .def_334)))
(let ((.def_116 (fp.mul RNE .def_11 .def_112)))
(let ((.def_117 ((_ to_fp 11 53) RNE .def_116)))
(let ((.def_119 (fp.div RNE .def_117 b396)))
(let ((.def_120 ((_ to_fp 8 24) RNE .def_119)))
(let ((.def_330 (fp.neg .def_120)))
(let ((.def_331 (= b851 .def_330)))
(let ((.def_327 (fp.leq b155 .def_120)))
(let ((.def_328 (not .def_327)))
(let ((.def_124 (fp.mul RNE .def_11 .def_120)))
(let ((.def_125 ((_ to_fp 11 53) RNE .def_124)))
(let ((.def_127 (fp.div RNE .def_125 b413)))
(let ((.def_128 ((_ to_fp 8 24) RNE .def_127)))
(let ((.def_323 (fp.neg .def_128)))
(let ((.def_324 (= b846 .def_323)))
(let ((.def_320 (fp.leq b155 .def_128)))
(let ((.def_321 (not .def_320)))
(let ((.def_172 (fp.add RNE b153 .def_16)))
(let ((.def_317 (= b770 .def_172)))
(let ((.def_313 ((_ to_fp 11 53) RNE b916)))
(let ((.def_314 (fp.leq b185 .def_313)))
(let ((.def_315 (not .def_314)))
(let ((.def_173 (fp.add RNE .def_24 .def_172)))
(let ((.def_310 (= b837 .def_173)))
(let ((.def_306 ((_ to_fp 11 53) RNE b911)))
(let ((.def_307 (fp.leq b185 .def_306)))
(let ((.def_308 (not .def_307)))
(let ((.def_174 (fp.add RNE .def_32 .def_173)))
(let ((.def_303 (= b832 .def_174)))
(let ((.def_299 ((_ to_fp 11 53) RNE b906)))
(let ((.def_300 (fp.leq b185 .def_299)))
(let ((.def_301 (not .def_300)))
(let ((.def_175 (fp.add RNE .def_40 .def_174)))
(let ((.def_296 (= b827 .def_175)))
(let ((.def_292 ((_ to_fp 11 53) RNE b901)))
(let ((.def_293 (fp.leq b185 .def_292)))
(let ((.def_294 (not .def_293)))
(let ((.def_176 (fp.add RNE .def_48 .def_175)))
(let ((.def_289 (= b822 .def_176)))
(let ((.def_285 ((_ to_fp 11 53) RNE b896)))
(let ((.def_286 (fp.leq b185 .def_285)))
(let ((.def_287 (not .def_286)))
(let ((.def_177 (fp.add RNE .def_56 .def_176)))
(let ((.def_282 (= b817 .def_177)))
(let ((.def_278 ((_ to_fp 11 53) RNE b891)))
(let ((.def_279 (fp.leq b185 .def_278)))
(let ((.def_280 (not .def_279)))
(let ((.def_178 (fp.add RNE .def_64 .def_177)))
(let ((.def_275 (= b812 .def_178)))
(let ((.def_271 ((_ to_fp 11 53) RNE b886)))
(let ((.def_272 (fp.leq b185 .def_271)))
(let ((.def_273 (not .def_272)))
(let ((.def_179 (fp.add RNE .def_72 .def_178)))
(let ((.def_268 (= b807 .def_179)))
(let ((.def_264 ((_ to_fp 11 53) RNE b881)))
(let ((.def_265 (fp.leq b185 .def_264)))
(let ((.def_266 (not .def_265)))
(let ((.def_180 (fp.add RNE .def_80 .def_179)))
(let ((.def_261 (= b802 .def_180)))
(let ((.def_257 ((_ to_fp 11 53) RNE b876)))
(let ((.def_258 (fp.leq b185 .def_257)))
(let ((.def_259 (not .def_258)))
(let ((.def_181 (fp.add RNE .def_88 .def_180)))
(let ((.def_254 (= b797 .def_181)))
(let ((.def_250 ((_ to_fp 11 53) RNE b871)))
(let ((.def_251 (fp.leq b185 .def_250)))
(let ((.def_252 (not .def_251)))
(let ((.def_182 (fp.add RNE .def_96 .def_181)))
(let ((.def_247 (= b792 .def_182)))
(let ((.def_243 ((_ to_fp 11 53) RNE b866)))
(let ((.def_244 (fp.leq b185 .def_243)))
(let ((.def_245 (not .def_244)))
(let ((.def_183 (fp.add RNE .def_104 .def_182)))
(let ((.def_240 (= b787 .def_183)))
(let ((.def_236 ((_ to_fp 11 53) RNE b861)))
(let ((.def_237 (fp.leq b185 .def_236)))
(let ((.def_238 (not .def_237)))
(let ((.def_184 (fp.add RNE .def_112 .def_183)))
(let ((.def_233 (= b782 .def_184)))
(let ((.def_229 ((_ to_fp 11 53) RNE b856)))
(let ((.def_230 (fp.leq b185 .def_229)))
(let ((.def_231 (not .def_230)))
(let ((.def_226 (fp.leq b153 b531)))
(let ((.def_224 (fp.leq b528 b153)))
(let ((.def_221 (fp.leq b765 b531)))
(let ((.def_217 (fp.leq b772 b162)))
(let ((.def_218 (not .def_217)))
(let ((.def_185 (fp.add RNE .def_120 .def_184)))
(let ((.def_214 (= b777 .def_185)))
(let ((.def_209 ((_ to_fp 11 53) RNE b851)))
(let ((.def_211 (fp.leq b185 .def_209)))
(let ((.def_212 (not .def_211)))
(let ((.def_205 (fp.neg b770)))
(let ((.def_206 (= b772 .def_205)))
(let ((.def_202 (fp.leq b155 b770)))
(let ((.def_203 (not .def_202)))
(let ((.def_198 (fp.neg b153)))
(let ((.def_199 (= b765 .def_198)))
(let ((.def_196 (fp.leq b155 b153)))
(let ((.def_197 (not .def_196)))
(let ((.def_200 (and .def_197 .def_199)))
(let ((.def_193 (= b153 b765)))
(let ((.def_194 (not .def_193)))
(let ((.def_201 (and .def_194 .def_200)))
(let ((.def_204 (and .def_201 .def_203)))
(let ((.def_207 (and .def_204 .def_206)))
(let ((.def_190 (= b770 b772)))
(let ((.def_191 (not .def_190)))
(let ((.def_208 (and .def_191 .def_207)))
(let ((.def_213 (and .def_208 .def_212)))
(let ((.def_215 (and .def_213 .def_214)))
(let ((.def_219 (and .def_215 .def_218)))
(let ((.def_222 (and .def_219 .def_221)))
(let ((.def_225 (and .def_222 .def_224)))
(let ((.def_227 (and .def_225 .def_226)))
(let ((.def_186 (fp.add RNE .def_128 .def_185)))
(let ((.def_187 (= b777 .def_186)))
(let ((.def_188 (not .def_187)))
(let ((.def_228 (and .def_188 .def_227)))
(let ((.def_232 (and .def_228 .def_231)))
(let ((.def_234 (and .def_232 .def_233)))
(let ((.def_170 (= b782 b777)))
(let ((.def_171 (not .def_170)))
(let ((.def_235 (and .def_171 .def_234)))
(let ((.def_239 (and .def_235 .def_238)))
(let ((.def_241 (and .def_239 .def_240)))
(let ((.def_167 (= b787 b782)))
(let ((.def_168 (not .def_167)))
(let ((.def_242 (and .def_168 .def_241)))
(let ((.def_246 (and .def_242 .def_245)))
(let ((.def_248 (and .def_246 .def_247)))
(let ((.def_164 (= b792 b787)))
(let ((.def_165 (not .def_164)))
(let ((.def_249 (and .def_165 .def_248)))
(let ((.def_253 (and .def_249 .def_252)))
(let ((.def_255 (and .def_253 .def_254)))
(let ((.def_161 (= b797 b792)))
(let ((.def_162 (not .def_161)))
(let ((.def_256 (and .def_162 .def_255)))
(let ((.def_260 (and .def_256 .def_259)))
(let ((.def_262 (and .def_260 .def_261)))
(let ((.def_158 (= b802 b797)))
(let ((.def_159 (not .def_158)))
(let ((.def_263 (and .def_159 .def_262)))
(let ((.def_267 (and .def_263 .def_266)))
(let ((.def_269 (and .def_267 .def_268)))
(let ((.def_155 (= b807 b802)))
(let ((.def_156 (not .def_155)))
(let ((.def_270 (and .def_156 .def_269)))
(let ((.def_274 (and .def_270 .def_273)))
(let ((.def_276 (and .def_274 .def_275)))
(let ((.def_152 (= b812 b807)))
(let ((.def_153 (not .def_152)))
(let ((.def_277 (and .def_153 .def_276)))
(let ((.def_281 (and .def_277 .def_280)))
(let ((.def_283 (and .def_281 .def_282)))
(let ((.def_149 (= b817 b812)))
(let ((.def_150 (not .def_149)))
(let ((.def_284 (and .def_150 .def_283)))
(let ((.def_288 (and .def_284 .def_287)))
(let ((.def_290 (and .def_288 .def_289)))
(let ((.def_146 (= b822 b817)))
(let ((.def_147 (not .def_146)))
(let ((.def_291 (and .def_147 .def_290)))
(let ((.def_295 (and .def_291 .def_294)))
(let ((.def_297 (and .def_295 .def_296)))
(let ((.def_143 (= b827 b822)))
(let ((.def_144 (not .def_143)))
(let ((.def_298 (and .def_144 .def_297)))
(let ((.def_302 (and .def_298 .def_301)))
(let ((.def_304 (and .def_302 .def_303)))
(let ((.def_140 (= b832 b827)))
(let ((.def_141 (not .def_140)))
(let ((.def_305 (and .def_141 .def_304)))
(let ((.def_309 (and .def_305 .def_308)))
(let ((.def_311 (and .def_309 .def_310)))
(let ((.def_137 (= b837 b832)))
(let ((.def_138 (not .def_137)))
(let ((.def_312 (and .def_138 .def_311)))
(let ((.def_316 (and .def_312 .def_315)))
(let ((.def_318 (and .def_316 .def_317)))
(let ((.def_134 (= b770 b837)))
(let ((.def_135 (not .def_134)))
(let ((.def_319 (and .def_135 .def_318)))
(let ((.def_322 (and .def_319 .def_321)))
(let ((.def_325 (and .def_322 .def_324)))
(let ((.def_130 (= .def_128 b846)))
(let ((.def_131 (not .def_130)))
(let ((.def_326 (and .def_131 .def_325)))
(let ((.def_329 (and .def_326 .def_328)))
(let ((.def_332 (and .def_329 .def_331)))
(let ((.def_122 (= .def_120 b851)))
(let ((.def_123 (not .def_122)))
(let ((.def_333 (and .def_123 .def_332)))
(let ((.def_336 (and .def_333 .def_335)))
(let ((.def_339 (and .def_336 .def_338)))
(let ((.def_114 (= .def_112 b856)))
(let ((.def_115 (not .def_114)))
(let ((.def_340 (and .def_115 .def_339)))
(let ((.def_343 (and .def_340 .def_342)))
(let ((.def_346 (and .def_343 .def_345)))
(let ((.def_106 (= .def_104 b861)))
(let ((.def_107 (not .def_106)))
(let ((.def_347 (and .def_107 .def_346)))
(let ((.def_350 (and .def_347 .def_349)))
(let ((.def_353 (and .def_350 .def_352)))
(let ((.def_98 (= .def_96 b866)))
(let ((.def_99 (not .def_98)))
(let ((.def_354 (and .def_99 .def_353)))
(let ((.def_357 (and .def_354 .def_356)))
(let ((.def_360 (and .def_357 .def_359)))
(let ((.def_90 (= .def_88 b871)))
(let ((.def_91 (not .def_90)))
(let ((.def_361 (and .def_91 .def_360)))
(let ((.def_364 (and .def_361 .def_363)))
(let ((.def_367 (and .def_364 .def_366)))
(let ((.def_82 (= .def_80 b876)))
(let ((.def_83 (not .def_82)))
(let ((.def_368 (and .def_83 .def_367)))
(let ((.def_371 (and .def_368 .def_370)))
(let ((.def_374 (and .def_371 .def_373)))
(let ((.def_74 (= .def_72 b881)))
(let ((.def_75 (not .def_74)))
(let ((.def_375 (and .def_75 .def_374)))
(let ((.def_378 (and .def_375 .def_377)))
(let ((.def_381 (and .def_378 .def_380)))
(let ((.def_66 (= .def_64 b886)))
(let ((.def_67 (not .def_66)))
(let ((.def_382 (and .def_67 .def_381)))
(let ((.def_385 (and .def_382 .def_384)))
(let ((.def_388 (and .def_385 .def_387)))
(let ((.def_58 (= .def_56 b891)))
(let ((.def_59 (not .def_58)))
(let ((.def_389 (and .def_59 .def_388)))
(let ((.def_392 (and .def_389 .def_391)))
(let ((.def_395 (and .def_392 .def_394)))
(let ((.def_50 (= .def_48 b896)))
(let ((.def_51 (not .def_50)))
(let ((.def_396 (and .def_51 .def_395)))
(let ((.def_399 (and .def_396 .def_398)))
(let ((.def_402 (and .def_399 .def_401)))
(let ((.def_42 (= .def_40 b901)))
(let ((.def_43 (not .def_42)))
(let ((.def_403 (and .def_43 .def_402)))
(let ((.def_406 (and .def_403 .def_405)))
(let ((.def_409 (and .def_406 .def_408)))
(let ((.def_34 (= .def_32 b906)))
(let ((.def_35 (not .def_34)))
(let ((.def_410 (and .def_35 .def_409)))
(let ((.def_413 (and .def_410 .def_412)))
(let ((.def_416 (and .def_413 .def_415)))
(let ((.def_26 (= .def_24 b911)))
(let ((.def_27 (not .def_26)))
(let ((.def_417 (and .def_27 .def_416)))
(let ((.def_420 (and .def_417 .def_419)))
(let ((.def_423 (and .def_420 .def_422)))
(let ((.def_427 (and .def_423 .def_426)))
(let ((.def_18 (= .def_16 b916)))
(let ((.def_19 (not .def_18)))
(let ((.def_428 (and .def_19 .def_427)))
.def_428)))))))))))))))))))))))))))))))))))))))))))))))))))))))))))))))))))))))))))))))))))))))))))))))))))))))))))))))))))))))))))))))))))))))))))))))))))))))))))))))))))))))))))))))))))))))))))))))))))))))))))))))))))))))))))))))))))))))))))))))))))))))))))))))))))))))))))))))))))))))))))))))))))))))))))))))))))))))))))))))))))))))))))))))))))))))))))))))))))))))))))))))))
(check-sat)
